p cnf 15 12
c p distribution  0.875 0.125
c p distribution  0.875 0.125
c p distribution  0.875 0.125
c p distribution  0.875 0.125
c p distribution  0.875 0.125
13 0
-12 0
13 -12 -1 0
12 -13 -1 0
14 -11 -3 0
11 -14 -3 0
14 -12 -5 0
12 -14 -5 0
15 -12 -7 0
12 -15 -7 0
14 -13 -9 0
13 -14 -9 0

